NAME : portgen-20-47
COMMENT : portgen N=20, seed=47
TYPE : TSP
DIMENSION : 20
EDGE_WEIGHT_TYPE : EUC_2D
NODE_COORD_SECTION
1 398205 194359
2 279856 693649
3 76405 387061
4 576052 421115
5 69855 344743
6 964227 655490
7 639570 433653
8 371931 465207
9 454940 786455
10 798136 302987
11 887606 797325
12 459323 490943
13 353325 485841
14 135731 82583
15 701454 980832
16 960983 427466
17 965075 726912
18 715908 362542
19 695348 186517
20 792731 291729
